files/upTests/tupley27-3/0001.eprime
language ESSENCE' 1.0

find pain_tuple1_tuple1: matrix indexed by [int(1)] of int(1, 2)
find pain_tuple1_tuple2: matrix indexed by [int(1)] of int(3)
find pain_tuple1_tuple3: matrix indexed by [int(1)] of int(4)
find pain_tuple1_tuple4: matrix indexed by [int(1)] of int(5)
such that
    pain_tuple1_tuple1[1] = 2,
    pain_tuple1_tuple2[1] = 3,
    pain_tuple1_tuple3[1] = 4,
    pain_tuple1_tuple4[1] = 5
