files/upTests/tupley27-3/0001.eprime.solution
language ESSENCE' 1.0
$ minion Nodes: 1
$ minion TotalTime: 0.000379
$ Savile Row TotalTime: 0.109
letting pain_tuple1_tuple3 be [4]
letting pain_tuple1_tuple4 be [5]
letting pain_tuple1_tuple1 be [2]
letting pain_tuple1_tuple2 be [3]
